40 352
2 5 6 7 10 11 12 14 19 20 25 30 31 32 33 34 36 37 39
2 4 5 6 8 9 11 19 26 27 29 31 32 33 34 35 38 39
0 1 3 4 5 6 7 9 20 22 28 30 33 34 36
2 9 10 13 18 21 23 25 29 32 35 37 39
1 2 6 9 16 17 19 20 21 22 26 27 32 33 37 38 39
0 1 2 6 9 11 13 18 19 20 23 24 25 27 30 32 33 34 36 37 38 39
0 1 2 4 5 10 11 12 13 15 18 20 25 26 28 31 37 39
0 2 9 12 13 14 15 16 18 19 20 21 25 26 27 29 31 34 35 38 39
1 9 14 15 19 22 23 25 26 31 32 34 35 38 39
1 2 3 4 5 7 8 13 14 17 20 21 32 34 35 37 38
0 3 6 12 13 15 18 20 22 23 26 27 30 31 35 39
0 1 5 6 13 14 15 18 20 21 25 26 32 36 38
0 6 7 10 13 14 16 17 21 23 26 27 28 31 34 35 36 38 39
3 5 6 7 9 10 11 12 14 15 16 17 18 23 24 27 28 29 37
0 7 8 9 11 12 13 16 19 21 24 25 26 27 28 35 36 38
6 7 8 10 11 13 16 17 18 21 24 26 28 29 30 32
4 7 12 13 14 15 18 21 24 26 27 28 31 34 36 37 39
4 9 12 13 15 18 22 24 28 29 30 31 33 34 36 37 38 39
3 5 6 7 10 11 13 15 16 17 20 24 26 27 28 29 30 32 33 34
0 1 4 5 7 8 14 20 25 26 30 33 34 35 36 37 39
0 2 4 5 6 7 9 10 11 18 19 25 26 28 29 31 32 33 34
3 4 7 9 11 12 14 15 16 25 26 28 29 34 36 38
2 4 8 10 17 23 24 25 30 31 32 34 36
3 5 8 10 12 13 22 25 27 29 30 32 33 36 37 39
5 13 14 15 16 17 18 22 26 27 28 29 31 33 35 36
0 3 5 6 7 8 11 14 19 20 21 22 23 29 31 34 36 38
1 4 6 7 8 10 11 12 14 15 16 18 19 20 21 24 27 30 34 35 37
1 4 5 7 10 12 13 14 16 18 23 24 26 30 38
2 6 12 13 14 15 16 17 18 20 21 24 31 33 36 37
1 3 7 13 15 17 18 20 21 23 24 25 30 34 36 37
0 2 5 10 15 17 18 19 22 23 26 27 29 32 33 35 36 38
0 1 6 7 8 10 12 16 17 20 22 24 25 28 32 33 34 37 38 39
0 1 3 4 5 8 9 11 15 18 20 22 23 30 31 35 36 38
0 1 2 4 5 17 18 19 20 23 24 28 30 31 36 37 39
0 1 2 5 7 8 9 12 16 17 18 19 20 21 22 25 26 29 31 35 38
1 3 7 8 9 10 12 14 19 24 26 30 32 34 38 39
0 2 5 11 12 14 16 17 19 21 22 23 24 25 28 29 30 32 33 39
0 3 4 5 6 9 13 16 17 19 23 26 28 29 31 33 38 39
1 4 5 7 8 9 11 12 14 17 21 25 27 30 31 32 34 35 37 39
0 1 3 4 5 6 7 8 10 12 16 17 19 23 31 33 35 36 37 38
